c A SAT instance generated from a 3-CNF formula that had 28 clauses and 7 variables
p cnf 7 28
2 -4 -6 0
-2 -4 -5 0
6 -1 7 0
-2 -3 -1 0
7 -3 -4 0
2 6 -4 0
7 -3 -4 0
-5 -4 -7 0
-1 7 -3 0
2 4 -7 0
-6 2 4 0
4 2 -5 0
4 -2 -3 0
2 4 3 0
-3 -1 -2 0
-3 -6 7 0
-4 -6 -3 0
3 4 6 0
-1 -6 -4 0
-6 -2 5 0
3 -7 -5 0
-7 5 -4 0
1 -4 -5 0
5 -7 1 0
7 6 -4 0
4 -2 6 0
3 4 6 0
-6 -4 2 0
